set N := A B C D E F;

set A := A B  A C  B C  B E  B F  B D
		C F  D F  E C  E D  F E;

param:	c	u :=
  A B	7	20
  A C	8	50
  B C	-1	40
  B D	4	30
  B	E	1	20
  B F	5	14
  C F	3	48
  D	F	1	33
  E C	-2	21
  E D	0	14
  F E	3	18
;

param b default 0 :=
A -1
F 1
;

param W :=500;